NAME 
ROWS
 N  OBJ
 L  R0      
 L  R1      
 E  R2      
 E  R3      
 E  R4      
 E  R5      
 E  R6      
 E  R7      
 E  R8      
 E  R9      
 E  R10     
 E  R11     
 E  R12     
 E  R13     
 E  R14     
 E  R15     
 E  R16     
COLUMNS
    MARKER    'MARKER'                 'INTORG'
    I0(10)    OBJ       112
    I0(10)    R0        -34
    I0(10)    R1        -5
    I0(10)    R2        -1
    I0(10)    R4        9
    I0(10)    R6        15
    I0(10)    R7        2
    I0(10)    R8        15
    I0(10)    R9        7
    I0(10)    R10       12
    I0(10)    R16       1
    I1(7)     OBJ       92
    I1(7)     R0        161
    I1(7)     R1        -172
    I1(7)     R2        19
    I1(7)     R4        8
    I1(7)     R5        3
    I1(7)     R6        14
    I1(7)     R16       1
    I2(9)     OBJ       -117
    I2(9)     R0        162
    I2(9)     R1        2
    I2(9)     R2        5
    I2(9)     R3        12
    I2(9)     R4        14
    I2(9)     R7        1
    I2(9)     R8        15
    I2(9)     R10       10
    I2(9)     R16       1
    I3(7)     OBJ       -135
    I3(7)     R0        -102
    I3(7)     R1        125
    I3(7)     R3        15
    I3(7)     R5        15
    I3(7)     R6        8
    I3(7)     R8        4
    I3(7)     R16       1
    I4(7)     OBJ       79
    I4(7)     R0        117
    I4(7)     R1        -105
    I4(7)     R5        12
    I4(7)     R7        2
    I4(7)     R9        5
    I4(7)     R10       5
    I4(7)     R16       1
    I5(9)     OBJ       51
    I5(9)     R0        -72
    I5(9)     R1        -108
    I5(9)     R2        -1
    I5(9)     R3        6
    I5(9)     R4        17
    I5(9)     R7        7
    I5(9)     R8        11
    I5(9)     R9        12
    I5(9)     R16       1
    I6(8)     OBJ       -171
    I6(8)     R0        -184
    I6(8)     R1        -159
    I6(8)     R2        10
    I6(8)     R4        12
    I6(8)     R6        15
    I6(8)     R7        1
    I6(8)     R10       -1
    I6(8)     R16       1
    I7(9)     OBJ       37
    I7(9)     R0        -158
    I7(9)     R1        -36
    I7(9)     R2        5
    I7(9)     R3        1
    I7(9)     R4        17
    I7(9)     R5        6
    I7(9)     R8        6
    I7(9)     R9        6
    I7(9)     R16       1
    I8(6)     OBJ       58
    I8(6)     R0        139
    I8(6)     R1        84
    I8(6)     R8        2
    I8(6)     R9        6
    I8(6)     R10       7
    I8(6)     R16       1
    MARKER    'MARKER'                 'INTEND'
    C9(11)    OBJ       5
    C9(11)    R0        8
    C9(11)    R1        -9
    C9(11)    R3        1
    C9(11)    R4        2
    C9(11)    R5        11
    C9(11)    R6        7
    C9(11)    R9        -1
    C9(11)    R12       1
    C9(11)    R13       4
    C9(11)    R14       13
    C9(11)    R15       8
    C10(13)   OBJ       -7
    C10(13)   R0        2
    C10(13)   R1        -4
    C10(13)   R2        19
    C10(13)   R3        15
    C10(13)   R4        6
    C10(13)   R5        13
    C10(13)   R6        10
    C10(13)   R7        15
    C10(13)   R8        17
    C10(13)   R9        15
    C10(13)   R10       2
    C10(13)   R12       18
    C10(13)   R14       15
    C11(11)   OBJ       4
    C11(11)   R0        -5
    C11(11)   R1        9
    C11(11)   R2        6
    C11(11)   R3        1
    C11(11)   R6        16
    C11(11)   R8        -1
    C11(11)   R10       3
    C11(11)   R11       10
    C11(11)   R12       8
    C11(11)   R13       13
    C11(11)   R15       16
    C12(11)   OBJ       -3
    C12(11)   R0        -3
    C12(11)   R2        14
    C12(11)   R3        11
    C12(11)   R4        11
    C12(11)   R5        17
    C12(11)   R6        5
    C12(11)   R9        16
    C12(11)   R12       4
    C12(11)   R13       13
    C12(11)   R14       12
    C12(11)   R15       -1
    C13(13)   OBJ       -9
    C13(13)   R0        3
    C13(13)   R2        1
    C13(13)   R4        7
    C13(13)   R5        6
    C13(13)   R6        17
    C13(13)   R7        18
    C13(13)   R8        7
    C13(13)   R9        1
    C13(13)   R10       4
    C13(13)   R11       11
    C13(13)   R12       4
    C13(13)   R13       3
    C13(13)   R14       5
    C14(9)    OBJ       -4
    C14(9)    R0        2
    C14(9)    R1        -2
    C14(9)    R2        6
    C14(9)    R7        8
    C14(9)    R10       9
    C14(9)    R11       5
    C14(9)    R13       4
    C14(9)    R14       18
    C14(9)    R15       15
    C15(1)    R2        1
    C16(1)    R3        1
    C17(1)    R4        1
    C18(1)    R5        1
    C19(1)    R6        1
    C20(1)    R7        1
    C21(1)    R8        1
    C22(1)    R9        1
    C23(1)    R10       1
    C24(1)    R11       1
    C25(1)    R12       1
    C26(1)    R13       1
    C27(1)    R14       1
    C28(1)    R15       1
    C29(1)    R16       1
RHS
    RHS1      R0        -4.6454390563564874e+02
    RHS1      R1        -2.0076408912188731e+02
    RHS1      R2        81
    RHS1      R3        63
    RHS1      R4        67
    RHS1      R5        57
    RHS1      R6        65
    RHS1      R7        52
    RHS1      R8        79
    RHS1      R9        51
    RHS1      R10       56
    RHS1      R11       75
    RHS1      R12       83
    RHS1      R13       87
    RHS1      R14       97
    RHS1      R15       76
    RHS1      R16       3
BOUNDS
 UP BND1      I0(10)    2
 UP BND1      I1(7)     2
 UP BND1      I2(9)     2
 UP BND1      I3(7)     2
 UP BND1      I4(7)     2
 UP BND1      I5(9)     2
 UP BND1      I6(8)     2
 UP BND1      I7(9)     2
 UP BND1      I8(6)     2
ENDATA
